WARNING: for repeatability, setting FPU to use double precision
============================[ Problem Statistics ]=============================
|                                                                             |
|  Number of variables:            50                                         |
|  Number of clauses:             218                                         |
|  Parse time:                   0.00 s                                       |
|                                                                             |
============================[ Search Statistics ]==============================
| Conflicts |          ORIGINAL         |          LEARNT          | Progress |
|           |    Vars  Clauses Literals |    Limit  Clauses Lit/Cl |          |
===============================================================================
===============================================================================
restarts              : 1
conflicts             : 58             (189542 /sec)
decisions             : 67             (0.00 % random) (218954 /sec)
propagations          : 846            (2764706 /sec)
conflict literals     : 198            (14.66 % deleted)
Memory used           : 20.00 MB
CPU time              : 0.000306 s

UNSATISFIABLE
